
Log started (V11.0.0) Sat May 24 20:04:57 2008

Tried aggregator 1 time.
Reduced MIP has 540 rows, 20001 columns, and 40040 nonzeros.
Presolve time =    0.16 sec.
Clique table members: 500.
MIP emphasis: balance optimality and feasibility.
MIP search method: dynamic search.
Parallel mode: none, using 1 thread.
Root relaxation solution time =    3.88 sec.

        Nodes                                         Cuts/
   Node  Left     Objective  IInf  Best Integer     Best Node    ItCnt     Gap

*     0+    0                       525426.0000    12527.8098      905   97.62%
*     0+    0                        13036.0000    12527.8098      905    3.90%
      0     0    12537.9825    79    13036.0000      Fract: 5     1041    3.82%
*     0+    0                        13034.0000    12537.9825     1041    3.81%
      0     0    12547.9658    84    13034.0000       Cuts: 4     1259    3.73%
      0     0    12558.6345    87    13034.0000       Cuts: 3     1360    3.65%
      0     0    12569.4503    95    13034.0000       Cuts: 5     1466    3.56%
      0     0    12578.0477    94    13034.0000       Cuts: 5     1618    3.50%
      0     0    12578.0500   103    13034.0000       Cuts: 5     1672    3.50%
*     0+    0                        13033.0000    12578.0500     1672    3.49%
      0     0    12578.0500   109    13033.0000   Flowcuts: 4     1721    3.49%
*     0+    0                        13032.0000    12578.0500     1721    3.48%
*     0+    0                        13031.0000    12578.0500     1721    3.48%
*     0+    0                        13027.0000    12578.0500     1721    3.45%
*     0+    0                        13026.0000    12578.0500     1721    3.44%
*     0+    0                        13024.0000    12578.0500     1721    3.42%
      0     2    12578.0500   109    13024.0000    12578.0500     1721    3.42%
Elapsed time =  11.66 sec. (tree size =  0.00 MB, solutions = 9)
    100   102    12578.3488    98    13024.0000    12578.0596     2672    3.42%
*   200+  200                        13023.0000    12578.0596     3467    3.42%
    200   202    12578.7402    96    13023.0000    12578.0596     3467    3.42%
    300   302    12579.0066    95    13023.0000    12578.0596     4325    3.42%
    400   402    12579.3799    96    13023.0000    12578.0596     4990    3.42%
    500   502    12579.6280    96    13023.0000    12578.0596     5693    3.42%
    600   532    12739.2094   129    13023.0000    12737.9755    38863    2.19%
    700   565    12739.6396   106    13023.0000    12737.9755    40990    2.19%
    800   544    12739.9374   110    13023.0000    12737.9755    43334    2.19%
    900   561    12749.2490   103    13023.0000    12737.9755    46802    2.19%
   1000   590    12749.5881    94    13023.0000    12737.9755    48250    2.19%
Elapsed time = 573.23 sec. (tree size =  7.95 MB, solutions = 10)
   1100   616    12749.7855    98    13023.0000    12737.9755    49346    2.19%
   1200   641    12750.2130    98    13023.0000    12737.9755    50655    2.19%
   1300   741    12750.4697    96    13023.0000    12737.9755    52587    2.19%
   1400   810    12759.8751   101    13023.0000    12737.9755    54749    2.19%
   1500   904    12769.9395    91    13023.0000    12737.9755    56338    2.19%
   1600  1004    12770.2896    98    13023.0000    12737.9755    58564    2.19%
   1700  1104    12770.6678    98    13023.0000    12737.9755    60716    2.19%
   1800  1204    12770.9411    98    13023.0000    12737.9755    62897    2.19%
   1900  1303    12780.6795    97    13023.0000    12737.9755    64605    2.19%
   2000  1402    12780.9420    97    13023.0000    12737.9755    66389    2.19%
Elapsed time = 826.63 sec. (tree size = 21.08 MB, solutions = 10)
   2100  1496    12781.2729   100    13023.0000    12737.9755    69790    2.19%
   2200  1595    12781.5844    94    13023.0000    12737.9755    72515    2.19%
   2300  1693    12791.9344    98    13023.0000    12737.9755    76617    2.19%
   2400  1792    12791.9175    94    13023.0000    12737.9755    77766    2.19%
   2500  1892    12799.5097    96    13023.0000    12737.9755    78972    2.19%
   2600  1992    12799.5310    92    13023.0000    12737.9755    82025    2.19%
   2700  2092    12807.4812    91    13023.0000    12737.9755    90542    2.19%
   2800  2192    12807.6391    93    13023.0000    12737.9755    93955    2.19%
   2900  2292    12807.7045    94    13023.0000    12737.9755    94926    2.19%
   3000  2392    12807.7675    95    13023.0000    12737.9755    95823    2.19%
Elapsed time = 1078.86 sec. (tree size = 36.55 MB, solutions = 10)
   3100  2492    12807.8487    96    13023.0000    12737.9755    96689    2.19%
   3200  2592    12807.9177    93    13023.0000    12737.9755    97460    2.19%
   3300  2692    12807.9774    93    13023.0000    12737.9755    98212    2.19%
   3400  2792    12809.1715    94    13023.0000    12737.9755    99049    2.19%
   3500  2888    12810.1517    90    13023.0000    12737.9755   100014    2.19%
   3600  2985    12822.5766    84    13023.0000    12737.9755   101837    2.19%
   3700  3085    12822.7865    84    13023.0000    12737.9755   103096    2.19%
   3800  3185    12822.7896    81    13023.0000    12737.9755   104983    2.19%
   3900  3285    12823.1546    79    13023.0000    12737.9755   107317    2.19%
   4000  3385    12833.2368    80    13023.0000    12737.9755   109174    2.19%
Elapsed time = 1216.69 sec. (tree size = 52.04 MB, solutions = 10)
   4100  3485    12835.4037    79    13023.0000    12737.9755   110310    2.19%
   4200  3585    12835.4186    79    13023.0000    12737.9755   115303    2.19%
   4300  3685    12835.4299    77    13023.0000    12737.9755   124348    2.19%
   4400  3785    12836.1554    75    13023.0000    12737.9755   129337    2.19%
   4500  3885    12852.2639    66    13023.0000    12737.9755   131344    2.19%
   4600  3985    12869.3730    62    13023.0000    12737.9755   133190    2.19%
   4700  4085    12936.6728    48    13023.0000    12737.9755   134627    2.19%
   4800  4160    13009.3269    45    13023.0000    12737.9755   134998    2.19%
   4900  4229    12738.9181   216    13023.0000    12737.9978   137911    2.19%
   5000  4329    12739.5441   109    13023.0000    12737.9978   141814    2.19%
Elapsed time = 1415.98 sec. (tree size = 66.57 MB, solutions = 10)
   5100  4418    12739.8311   102    13023.0000    12737.9978   145167    2.19%
   5200  4515    12749.6163   109    13023.0000    12737.9978   148363    2.19%
   5300  4615    12750.0687   104    13023.0000    12737.9978   151683    2.19%
   5400  4715    12750.3607   106    13023.0000    12737.9978   154730    2.19%
   5500  4815    12750.9730   103    13023.0000    12737.9978   157631    2.19%
   5600  4915    12751.2749   105    13023.0000    12737.9978   159888    2.19%
   5700  5015    12751.7934   109    13023.0000    12737.9978   161656    2.19%
   5800  5115    12761.4594   106    13023.0000    12737.9978   162932    2.19%
   5900  5215    12761.7216   102    13023.0000    12737.9978   164462    2.19%
   6000  5315    12761.9424   105    13023.0000    12737.9978   165913    2.19%
Elapsed time = 1625.92 sec. (tree size = 81.99 MB, solutions = 10)
   6100  5415    12762.2150   103    13023.0000    12737.9978   167614    2.19%
   6200  5515    12771.7167   102    13023.0000    12737.9978   169119    2.19%
   6300  5615    12771.9917   102    13023.0000    12737.9978   169688    2.19%
   6400  5715    12783.7067    90    13023.0000    12737.9978   171338    2.19%
   6500  5815    12784.0359    89    13023.0000    12737.9978   173110    2.19%
   6600  5915    12784.2852    92    13023.0000    12737.9978   175040    2.19%
   6700  6012    12793.2369    90    13023.0000    12737.9978   176334    2.19%
   6800  6112    12793.2916    90    13023.0000    12737.9978   179063    2.19%
   6900  6212    12793.3269    89    13023.0000    12737.9978   180302    2.19%
   7000  6312    12793.3447    93    13023.0000    12737.9978   187455    2.19%
Elapsed time = 1807.22 sec. (tree size = 97.99 MB, solutions = 10)
   7100  6412    12800.4486    95    13023.0000    12737.9978   192971    2.19%
   7200  6512    12800.6588    95    13023.0000    12737.9978   194273    2.19%
   7300  6612    12800.7325    90    13023.0000    12737.9978   195611    2.19%
   7400  6712    12800.8693    85    13023.0000    12737.9978   197431    2.19%
   7500  6812    12800.8929    86    13023.0000    12737.9978   200432    2.19%
   7600  6912    12800.9416    86    13023.0000    12737.9978   204734    2.19%
   7700  7012    12801.3112    80    13023.0000    12737.9978   210077    2.19%
   7800  7112    12801.3951    83    13023.0000    12737.9978   217498    2.19%
   7900  7212    12801.4214    82    13023.0000    12737.9978   222364    2.19%
   8000  7312    12809.8320    85    13023.0000    12737.9978   231099    2.19%
Elapsed time = 2046.83 sec. (tree size = 114.06 MB, solutions = 10)
   8100  7412    12801.8270    77    13023.0000    12737.9978   239685    2.19%
   8200  7512    12802.0950    80    13023.0000    12737.9978   246632    2.19%
   8300  7612    12802.6040    77    13023.0000    12737.9978   253187    2.19%
   8400  7712    12802.9711    75    13023.0000    12737.9978   256108    2.19%
   8500  7812    12803.2314    71    13023.0000    12737.9978   257162    2.19%
   8600  7912    12830.8547    70    13023.0000    12737.9978   264861    2.19%
   8700  8012    12820.1428    70    13023.0000    12737.9978   268743    2.19%
   8800  8112    12820.6808    72    13023.0000    12737.9978   270702    2.19%
Began writing nodes to disk (directory ./cpxa01652 created)
   8900  8212    12821.3881    66    13023.0000    12737.9978   271300    2.19%
   9000  8308    12833.3245    66    13023.0000    12737.9978   271810    2.19%
Elapsed time = 2282.00 sec. (tree size = 130.08 MB, solutions = 10)
Nodefile size =  2.99 MB (0.89 MB after compression)
   9100  8407    12880.0561    54    13023.0000    12737.9978   272332    2.19%
   9200  8507    12913.4049    52    13023.0000    12737.9978   272789    2.19%
   9300  8607    12978.5366    49    13023.0000    12737.9978   273332    2.19%
   9400  8691    12738.2483   468    13023.0000    12738.0677   277775    2.19%
   9500  8791    12738.9272   626    13023.0000    12738.2138   358616    2.19%
   9600  8891    12739.2470   582    13023.0000    12738.2141   372067    2.19%
   9700  8991    12756.5578   297    13023.0000    12738.2141   380911    2.19%
   9800  9091    12750.4467   494    13023.0000    12738.2141   398884    2.19%
   9900  9191    12776.8370   293    13023.0000    12738.2141   407065    2.19%
  10000  9291    12739.6368   443    13023.0000    12738.2144   417387    2.19%
Elapsed time = 3801.80 sec. (tree size = 153.08 MB, solutions = 10)
Nodefile size = 25.32 MB (10.07 MB after compression)
  10100  9391    12740.4870   257    13023.0000    12738.2144   420835    2.19%
  10200  9491    12751.0250   435    13023.0000    12738.2160   439085    2.19%
  10300  9591    12770.3679   281    13023.0000    12738.2160   446299    2.19%
  10400  9691    12739.4464   480    13023.0000    12738.2167   465220    2.19%
  10500  9791    12740.2356   298    13023.0000    12738.2167   469625    2.19%
  10600  9891    12750.2552   479    13023.0000    12738.2167   486946    2.19%
  10700  9991    12763.2969   251    13023.0000    12738.2167   493700    2.19%
  10800 10091    12739.5910   465    13023.0000    12738.2176   508752    2.19%
  10900 10191    12740.2460   298    13023.0000    12738.2176   512584    2.19%
  11000 10291    12739.8069   447    13023.0000    12738.2183   526847    2.19%
Elapsed time = 4793.30 sec. (tree size = 182.46 MB, solutions = 10)
Nodefile size = 54.73 MB (23.92 MB after compression)
  11100 10391    12751.3442   337    13023.0000    12738.2183   531851    2.19%
  11200 10491    12739.8177   441    13023.0000    12738.2183   544176    2.19%
  11300 10591    12751.3514   307    13023.0000    12738.2183   547484    2.19%
  11400 10691    12739.5851   459    13023.0000    12738.2188   562049    2.19%
  11500 10791    12740.3592   270    13023.0000    12738.2188   567241    2.19%
  11600 10891    12739.5159   467    13023.0000    12738.2191   585619    2.19%
  11700 10991    12740.4804   264    13023.0000    12738.2191   591431    2.19%
  11800 11091    12744.9574   429    13023.0000    12738.2196   616119    2.19%
  11900 11191    12756.3259   270    13023.0000    12738.2196   620513    2.19%
  12000 11291    12739.9208   410    13023.0000    12738.2196   636323    2.19%
Elapsed time = 5673.53 sec. (tree size = 213.26 MB, solutions = 10)
Nodefile size = 85.42 MB (40.81 MB after compression)
  12100 11391    12740.8889   267    13023.0000    12738.2196   640152    2.19%
  12200 11491    12739.8709   429    13023.0000    12738.2199   656964    2.19%
  12300 11591    12740.7157   288    13023.0000    12738.2199   660759    2.19%
  12400 11691    12744.7318   427    13023.0000    12738.2208   685856    2.19%
  12500 11791    12745.4659   242    13023.0000    12738.2208   689637    2.19%
  12600 11891    12739.9366   423    13023.0000    12738.2208   709156    2.19%
  12700 11991    12740.8201   290    13023.0000    12738.2208   712514    2.19%
  12800 12091    12739.9062   381    13023.0000    12738.2245   732288    2.19%
* 12808+12097                        13022.0000    12738.2245   732544    2.18%
  12900 12191    12740.8678   277    13022.0000    12738.2245   735423    2.18%
  13000 12291    12739.7860   417    13022.0000    12738.2246   752766    2.18%
Elapsed time = 6669.64 sec. (tree size = 245.48 MB, solutions = 11)
Nodefile size = 117.94 MB (55.92 MB after compression)
  13100 12391    12740.6697   335    13022.0000    12738.2246   757099    2.18%
  13200 12491    12739.6628   414    13022.0000    12738.2265   776609    2.18%
  13300 12591    12740.5140   237    13022.0000    12738.2265   780330    2.18%
  13400 12691    12739.6808   383    13022.0000    12738.2266   798189    2.18%
  13500 12791    12740.3723   267    13022.0000    12738.2266   803578    2.18%

Cover cuts applied:  1904
Flow cuts applied:  6
Gomory fractional cuts applied:  28

Solution pool: 11 solutions saved.

MIP - Time limit exceeded, integer feasible:  Objective = 1.3022000000e+004
Current MIP best bound = 1.2738226785e+004 (gap = 283.773, 2.18%)
Solution time = 7200.06 sec.  Iterations = 813363  Nodes = 13527 (12817)


Incumbent solution
Variable Name           Solution Value
Cmax                      13022.000000
X_1_3                         1.000000
X_2_33                        1.000000
X_3_23                        1.000000
X_4_35                        1.000000
X_5_5                         1.000000
X_6_40                        1.000000
X_7_6                         1.000000
X_8_16                        1.000000
X_9_13                        1.000000
X_10_39                       1.000000
X_11_29                       1.000000
X_12_22                       1.000000
X_13_13                       1.000000
X_14_35                       1.000000
X_15_4                        1.000000
X_16_21                       1.000000
X_17_33                       1.000000
X_18_15                       1.000000
X_19_33                       1.000000
X_20_33                       1.000000
X_21_12                       1.000000
X_22_11                       1.000000
X_23_6                        1.000000
X_24_1                        1.000000
X_25_30                       1.000000
X_26_32                       1.000000
X_27_31                       1.000000
X_28_4                        1.000000
X_29_19                       1.000000
X_30_36                       1.000000
X_31_25                       1.000000
X_32_23                       1.000000
X_33_17                       1.000000
X_34_10                       1.000000
X_35_32                       1.000000
X_36_37                       1.000000
X_37_36                       1.000000
X_38_32                       1.000000
X_39_12                       1.000000
X_40_23                       1.000000
X_41_28                       1.000000
X_42_1                        1.000000
X_43_31                       1.000000
X_44_21                       1.000000
X_45_1                        1.000000
X_46_35                       1.000000
X_47_8                        1.000000
X_48_22                       1.000000
X_49_34                       1.000000
X_50_25                       1.000000
X_51_39                       1.000000
X_52_13                       1.000000
X_53_23                       1.000000
X_54_26                       1.000000
X_55_24                       1.000000
X_56_27                       1.000000
X_57_22                       1.000000
X_58_9                        1.000000
X_59_21                       1.000000
X_60_1                        1.000000
X_61_25                       1.000000
X_62_40                       1.000000
X_63_30                       1.000000
X_64_5                        1.000000
X_65_7                        1.000000
X_66_25                       1.000000
X_67_11                       1.000000
X_68_1                        1.000000
X_69_14                       1.000000
X_70_4                        1.000000
X_71_8                        1.000000
X_72_28                       1.000000
X_73_15                       1.000000
X_74_36                       1.000000
X_75_31                       1.000000
X_76_6                        1.000000
X_77_32                       1.000000
X_78_21                       1.000000
X_79_34                       1.000000
X_80_38                       1.000000
X_81_15                       1.000000
X_82_3                        1.000000
X_83_2                        1.000000
X_84_3                        1.000000
X_85_2                        1.000000
X_86_24                       1.000000
X_87_32                       1.000000
X_88_38                       1.000000
X_89_25                       1.000000
X_90_40                       1.000000
X_91_7                        1.000000
X_92_4                        1.000000
X_93_30                       1.000000
X_94_5                        1.000000
X_95_16                       1.000000
X_96_24                       1.000000
X_97_26                       1.000000
X_98_16                       1.000000
X_99_12                       1.000000
X_100_35                      1.000000
X_101_34                      1.000000
X_102_28                      1.000000
X_103_34                      1.000000
X_104_37                      1.000000
X_105_10                      1.000000
X_106_6                       1.000000
X_107_9                       1.000000
X_108_16                      1.000000
X_109_36                      1.000000
X_110_11                      1.000000
X_111_5                       1.000000
X_112_24                      1.000000
X_113_3                       1.000000
X_114_36                      1.000000
X_115_29                      1.000000
X_116_30                      1.000000
X_117_32                      1.000000
X_118_31                      1.000000
X_119_26                      1.000000
X_120_37                      1.000000
X_121_8                       1.000000
X_122_21                      1.000000
X_123_39                      1.000000
X_124_32                      1.000000
X_125_11                      1.000000
X_126_30                      1.000000
X_127_17                      1.000000
X_128_33                      1.000000
X_129_37                      1.000000
X_130_24                      1.000000
X_131_2                       1.000000
X_132_2                       1.000000
X_133_10                      1.000000
X_134_24                      1.000000
X_135_24                      1.000000
X_136_39                      1.000000
X_137_12                      1.000000
X_138_40                      1.000000
X_139_8                       1.000000
X_140_24                      1.000000
X_141_4                       1.000000
X_142_7                       1.000000
X_143_5                       1.000000
X_144_33                      1.000000
X_145_34                      1.000000
X_146_35                      1.000000
X_147_2                       1.000000
X_148_40                      1.000000
X_149_37                      1.000000
X_150_9                       1.000000
X_151_23                      1.000000
X_152_1                       1.000000
X_153_39                      1.000000
X_154_34                      1.000000
X_155_9                       1.000000
X_156_33                      1.000000
X_157_36                      1.000000
X_158_23                      1.000000
X_159_26                      1.000000
X_160_34                      1.000000
X_161_22                      1.000000
X_162_18                      1.000000
X_163_10                      1.000000
X_164_38                      1.000000
X_165_21                      1.000000
X_166_4                       1.000000
X_167_6                       1.000000
X_168_20                      1.000000
X_169_6                       1.000000
X_170_38                      1.000000
X_171_30                      1.000000
X_172_13                      1.000000
X_173_24                      1.000000
X_174_18                      1.000000
X_175_5                       1.000000
X_176_7                       1.000000
X_177_24                      1.000000
X_178_18                      1.000000
X_179_33                      1.000000
X_180_32                      1.000000
X_181_35                      1.000000
X_182_13                      1.000000
X_183_40                      1.000000
X_184_2                       1.000000
X_185_14                      1.000000
X_186_34                      1.000000
X_187_36                      1.000000
X_188_27                      1.000000
X_189_28                      1.000000
X_190_9                       1.000000
X_191_1                       1.000000
X_192_20                      1.000000
X_193_20                      1.000000
X_194_7                       1.000000
X_195_36                      1.000000
X_196_37                      1.000000
X_197_3                       1.000000
X_198_15                      1.000000
X_199_30                      1.000000
X_200_27                      1.000000
X_201_19                      1.000000
X_202_11                      1.000000
X_203_18                      1.000000
X_204_33                      1.000000
X_205_36                      1.000000
X_206_26                      1.000000
X_207_19                      1.000000
X_208_6                       1.000000
X_209_14                      1.000000
X_210_6                       1.000000
X_211_11                      1.000000
X_212_26                      1.000000
X_213_19                      1.000000
X_214_13                      1.000000
X_215_5                       1.000000
X_216_8                       1.000000
X_217_15                      1.000000
X_218_28                      1.000000
X_219_27                      1.000000
X_220_27                      1.000000
X_221_14                      1.000000
X_222_37                      1.000000
X_223_19                      1.000000
X_224_17                      1.000000
X_225_29                      1.000000
X_226_19                      1.000000
X_227_20                      1.000000
X_228_4                       1.000000
X_229_3                       1.000000
X_230_3                       1.000000
X_231_16                      1.000000
X_232_5                       1.000000
X_233_9                       1.000000
X_234_22                      1.000000
X_235_5                       1.000000
X_236_13                      1.000000
X_237_29                      1.000000
X_238_18                      1.000000
X_239_13                      1.000000
X_240_38                      1.000000
X_241_1                       1.000000
X_242_11                      1.000000
X_243_39                      1.000000
X_244_23                      1.000000
X_245_16                      1.000000
X_246_19                      1.000000
X_247_18                      1.000000
X_248_4                       1.000000
X_249_35                      1.000000
X_250_37                      1.000000
X_251_23                      1.000000
X_252_25                      1.000000
X_253_22                      1.000000
X_254_2                       1.000000
X_255_39                      1.000000
X_256_18                      1.000000
X_257_10                      1.000000
X_258_11                      1.000000
X_259_11                      1.000000
X_260_8                       1.000000
X_261_30                      1.000000
X_262_29                      1.000000
X_263_3                       1.000000
X_264_15                      1.000000
X_265_2                       1.000000
X_266_21                      1.000000
X_267_27                      1.000000
X_268_6                       1.000000
X_269_3                       1.000000
X_270_35                      1.000000
X_271_17                      1.000000
X_272_40                      1.000000
X_273_12                      1.000000
X_274_39                      1.000000
X_275_18                      1.000000
X_276_12                      1.000000
X_277_6                       1.000000
X_278_15                      1.000000
X_279_8                       1.000000
X_280_27                      1.000000
X_281_17                      1.000000
X_282_4                       1.000000
X_283_23                      1.000000
X_284_27                      1.000000
X_285_35                      1.000000
X_286_16                      1.000000
X_287_28                      1.000000
X_288_20                      1.000000
X_289_29                      1.000000
X_290_7                       1.000000
X_291_13                      1.000000
X_292_33                      1.000000
X_293_7                       1.000000
X_294_35                      1.000000
X_295_11                      1.000000
X_296_37                      1.000000
X_297_32                      1.000000
X_298_24                      1.000000
X_299_7                       1.000000
X_300_36                      1.000000
X_301_22                      1.000000
X_302_3                       1.000000
X_303_39                      1.000000
X_304_1                       1.000000
X_305_24                      1.000000
X_306_5                       1.000000
X_307_19                      1.000000
X_308_7                       1.000000
X_309_36                      1.000000
X_310_1                       1.000000
X_311_34                      1.000000
X_312_16                      1.000000
X_313_22                      1.000000
X_314_28                      1.000000
X_315_26                      1.000000
X_316_9                       1.000000
X_317_36                      1.000000
X_318_20                      1.000000
X_319_38                      1.000000
X_320_19                      1.000000
X_321_28                      1.000000
X_322_22                      1.000000
X_323_21                      1.000000
X_324_14                      1.000000
X_325_38                      1.000000
X_326_2                       1.000000
X_327_17                      1.000000
X_328_31                      1.000000
X_329_34                      1.000000
X_330_37                      1.000000
X_331_13                      1.000000
X_332_37                      1.000000
X_333_12                      1.000000
X_334_10                      1.000000
X_335_7                       1.000000
X_336_14                      1.000000
X_337_31                      1.000000
X_338_25                      1.000000
X_339_17                      1.000000
X_340_13                      1.000000
X_341_3                       1.000000
X_342_29                      1.000000
X_343_38                      1.000000
X_344_8                       1.000000
X_345_17                      1.000000
X_346_6                       1.000000
X_347_15                      1.000000
X_348_39                      1.000000
X_349_18                      1.000000
X_350_14                      1.000000
X_351_23                      1.000000
X_352_14                      1.000000
X_353_12                      1.000000
X_354_40                      1.000000
X_355_21                      1.000000
X_356_28                      1.000000
X_357_22                      1.000000
X_358_31                      1.000000
X_359_35                      1.000000
X_360_33                      1.000000
X_361_37                      1.000000
X_362_8                       1.000000
X_363_25                      1.000000
X_364_27                      1.000000
X_365_11                      1.000000
X_366_8                       1.000000
X_367_7                       1.000000
X_368_39                      1.000000
X_369_17                      1.000000
X_370_30                      1.000000
X_371_31                      1.000000
X_372_15                      1.000000
X_373_19                      1.000000
X_374_22                      1.000000
X_375_37                      1.000000
X_376_9                       1.000000
X_377_17                      1.000000
X_378_23                      1.000000
X_379_40                      1.000000
X_380_33                      1.000000
X_381_16                      1.000000
X_382_3                       1.000000
X_383_13                      1.000000
X_384_16                      1.000000
X_385_9                       1.000000
X_386_31                      1.000000
X_387_22                      1.000000
X_388_5                       1.000000
X_389_30                      1.000000
X_390_8                       1.000000
X_391_14                      1.000000
X_392_29                      1.000000
X_393_20                      1.000000
X_394_10                      1.000000
X_395_30                      1.000000
X_396_40                      1.000000
X_397_12                      1.000000
X_398_39                      1.000000
X_399_12                      1.000000
X_400_6                       1.000000
X_401_4                       1.000000
X_402_14                      1.000000
X_403_30                      1.000000
X_404_27                      1.000000
X_405_20                      1.000000
X_406_40                      1.000000
X_407_10                      1.000000
X_408_19                      1.000000
X_409_40                      1.000000
X_410_21                      1.000000
X_411_18                      1.000000
X_412_18                      1.000000
X_413_4                       1.000000
X_414_34                      1.000000
X_415_21                      1.000000
X_416_30                      1.000000
X_417_19                      1.000000
X_418_22                      1.000000
X_419_2                       1.000000
X_420_7                       1.000000
X_421_2                       1.000000
X_422_28                      1.000000
X_423_32                      1.000000
X_424_31                      1.000000
X_425_9                       1.000000
X_426_20                      1.000000
X_427_8                       1.000000
X_428_27                      1.000000
X_429_21                      1.000000
X_430_27                      1.000000
X_431_26                      1.000000
X_432_11                      1.000000
X_433_16                      1.000000
X_434_26                      1.000000
X_435_31                      1.000000
X_436_29                      1.000000
X_437_10                      1.000000
X_438_34                      1.000000
X_439_4                       1.000000
X_440_28                      1.000000
X_441_19                      1.000000
X_442_29                      1.000000
X_443_18                      1.000000
X_444_31                      1.000000
X_445_25                      1.000000
X_446_26                      1.000000
X_447_8                       1.000000
X_448_29                      1.000000
X_449_9                       1.000000
X_450_20                      1.000000
X_451_38                      1.000000
X_452_15                      1.000000
X_453_32                      1.000000
X_454_1                       1.000000
X_455_21                      1.000000
X_456_28                      1.000000
X_457_29                      1.000000
X_458_5                       1.000000
X_459_12                      1.000000
X_460_10                      1.000000
X_461_20                      1.000000
X_462_26                      1.000000
X_463_1                       1.000000
X_464_9                       1.000000
X_465_38                      1.000000
X_466_17                      1.000000
X_467_39                      1.000000
X_468_10                      1.000000
X_469_7                       1.000000
X_470_2                       1.000000
X_471_15                      1.000000
X_472_38                      1.000000
X_473_35                      1.000000
X_474_13                      1.000000
X_475_17                      1.000000
X_476_20                      1.000000
X_477_25                      1.000000
X_478_12                      1.000000
X_479_2                       1.000000
X_480_17                      1.000000
X_481_23                      1.000000
X_482_26                      1.000000
X_483_10                      1.000000
X_484_35                      1.000000
X_485_5                       1.000000
X_486_25                      1.000000
X_487_32                      1.000000
X_488_20                      1.000000
X_489_1                       1.000000
X_490_18                      1.000000
X_491_36                      1.000000
X_492_4                       1.000000
X_493_16                      1.000000
X_494_38                      1.000000
X_495_10                      1.000000
X_496_34                      1.000000
X_497_14                      1.000000
X_498_25                      1.000000
X_499_15                      1.000000
X_500_14                      1.000000
All other variables in the range 1-20001 are 0.
